Set parameter TSPort to value 51199
Set parameter TokenServer to value "open-license1.lanl.gov"
Set parameter TimeLimit to value 32
Set parameter Threads to value 1
Gurobi Optimizer version 10.0.3 build v10.0.3rc0 (linux64)

CPU model: Intel(R) Xeon(R) CPU E5-2695 v4 @ 2.10GHz, instruction set [SSE2|AVX|AVX2]
Thread count: 36 physical cores, 72 logical processors, using up to 1 threads

Optimize a model with 0 rows, 597 columns and 0 nonzeros
Model fingerprint: 0x8cbcd859
Model has 2566 quadratic objective terms
Variable types: 0 continuous, 597 integer (597 binary)
Coefficient statistics:
  Matrix range     [0e+00, 0e+00]
  Objective range  [2e+00, 3e+01]
  QObjective range [8e+00, 8e+00]
  Bounds range     [1e+00, 1e+00]
  RHS range        [0e+00, 0e+00]
Found heuristic solution: objective 0.0000000
Found heuristic solution: objective -1052.000000
Found heuristic solution: objective -3602.000000
Found heuristic solution: objective -3618.000000
Presolve removed 0 rows and 2 columns
Presolve time: 0.23s
Presolved: 2564 rows, 3159 columns, 7692 nonzeros
Variable types: 0 continuous, 3159 integer (3159 binary)

Root relaxation: objective -4.926000e+03, 758 iterations, 0.02 seconds (0.01 work units)

    Nodes    |    Current Node    |     Objective Bounds      |     Work
 Expl Unexpl |  Obj  Depth IntInf | Incumbent    BestBd   Gap | It/Node Time

     0     0 -4926.0000    0  595 -3618.0000 -4926.0000  36.2%     -    0s
     0     0 -4484.8333    0  837 -3618.0000 -4484.8333  24.0%     -    0s
     0     0 -4482.1667    0  845 -3618.0000 -4482.1667  23.9%     -    0s
     0     0 -4380.9167    0  925 -3618.0000 -4380.9167  21.1%     -    0s
     0     0 -4380.9167    0  921 -3618.0000 -4380.9167  21.1%     -    1s
     0     2 -4380.4167    0  915 -3618.0000 -4380.4167  21.1%     -    1s
   513   492 -3873.5000   79  595 -3618.0000 -4368.1667  20.7%  81.5    5s
   533   506 -3917.5000   68 1869 -3618.0000 -4042.3346  11.7%  78.4   10s
   547   515 -3790.5000   93 2172 -3618.0000 -3988.8143  10.2%  76.4   15s
   557   522 -3946.5000   65 2328 -3618.0000 -3955.2292  9.32%  75.1   21s
   566   528 -3946.6860   15 2534 -3618.0000 -3946.6860  9.08%  73.9   25s
   568   529 -3894.5000   75 2612 -3618.0000 -3922.0682  8.40%  73.6   31s

Cutting planes:
  Gomory: 43
  MIR: 122
  Flow cover: 653
  Zero half: 558
  RLT: 93
  BQP: 139

Explored 569 nodes (122382 simplex iterations) in 32.00 seconds (32.51 work units)
Thread count was 1 (of 72 available processors)

Solution count 4: -3618 -3602 -1052 0 

Time limit reached
Best objective -3.618000000000e+03, best bound -3.920000000000e+03, gap 8.3472%

User-callback calls 2925, time in user-callback 0.02 sec

BQP_SOLUTION, 597, 2566, -1258.000000, 32.005003, -1, 1, -1, 1, 1, -1, 1, -1, 1, 1, -1, 1, -1, -1, 1, 1, -1, -1, 1, 1, 1, 1, -1, 1, 1, -1, 1, -1, 1, 1, -1, 1, -1, -1, 1, -1, 1, -1, -1, 1, -1, -1, 1, -1, 1, -1, 1, -1, -1, 1, -1, -1, -1, -1, -1, 1, -1, -1, 1, 1, -1, -1, -1, 1, -1, -1, -1, -1, -1, 1, 1, -1, 1, 1, 1, -1, -1, -1, 1, -1, 1, -1, 1, -1, -1, -1, -1, -1, 1, -1, 1, -1, 1, 1, 1, 1, 1, 1, 1, 1, 1, -1, -1, -1, 1, -1, 1, -1, 1, 1, 1, -1, 1, 1, 1, 1, -1, 1, 1, 1, 1, -1, 1, 1, 1, -1, 1, 1, 1, 1, -1, 1, -1, 1, 1, -1, 1, -1, 1, 1, -1, -1, -1, 1, 1, 1, 1, 1, -1, 1, -1, -1, -1, 1, 1, 1, -1, 1, -1, 1, -1, 1, -1, 1, 1, 1, -1, -1, 1, -1, 1, -1, 1, 1, 1, 1, -1, -1, 1, 1, -1, -1, -1, 1, 1, -1, -1, 1, -1, 1, -1, -1, 1, -1, 1, -1, 1, -1, 1, 1, 1, -1, 1, 1, 1, -1, 1, 1, -1, 1, -1, 1, 1, 1, 1, 1, -1, 1, -1, 1, 1, -1, 1, 1, 1, -1, -1, 1, 1, 1, 1, -1, 1, 1, 1, -1, 1, 1, 1, -1, 1, 1, 1, 1, 1, 1, 1, 1, 1, -1, 1, 1, 1, 1, -1, -1, 1, 1, 1, -1, -1, 1, 1, 1, 1, -1, 1, 1, 1, -1, 1, 1, 1, 1, -1, -1, 1, 1, 1, -1, -1, 1, 1, -1, 1, -1, 1, 1, -1, -1, 1, 1, 1, 1, -1, -1, 1, 1, 1, -1, 1, -1, -1, 1, 1, 1, 1, 1, 1, -1, 1, -1, 1, 1, -1, 1, -1, 1, -1, 1, -1, -1, 1, -1, 1, -1, -1, 1, -1, 1, -1, 1, -1, 1, -1, 1, -1, 1, 1, -1, -1, -1, 1, -1, 1, -1, -1, -1, 1, 1, -1, -1, 1, -1, 1, -1, -1, 1, 1, -1, -1, 1, 1, -1, -1, 1, 1, 1, -1, 1, -1, 1, 1, -1, -1, 1, 1, 1, 1, 1, 1, 1, 1, 1, -1, 1, 1, -1, 1, 1, 1, 1, 1, 1, 1, -1, 1, -1, 1, 1, 1, 1, -1, 1, -1, 1, 1, 1, 1, 1, 1, 1, 1, 1, -1, 1, 1, 1, -1, 1, 1, 1, 1, -1, 1, 1, -1, 1, -1, 1, -1, 1, 1, -1, 1, 1, -1, 1, -1, 1, 1, -1, 1, -1, 1, -1, 1, 1, -1, 1, -1, -1, 1, 1, 1, -1, 1, 1, -1, 1, -1, -1, 1, 1, 1, -1, 1, -1, 1, -1, 1, -1, 1, 1, 1, -1, -1, 1, -1, 1, -1, 1, -1, -1, 1, -1, -1, 1, -1, 1, -1, -1, 1, -1, 1, -1, -1, 1, -1, -1, -1, -1, 1, -1, 1, -1, -1, 1, -1, 1, -1, -1, -1, -1, -1, 1, -1, 1, -1, 1, -1, -1, -1, -1, -1, -1, -1, 1, -1, -1, 1, -1, -1, 1, 1, -1, -1, 1, -1, -1, -1, -1, -1, -1, 1, -1, -1, 1, -1, -1, -1, 1, -1, -1, 1, -1, 1, -1, -1, -1, 1, -1, -1, -1, -1, -1, -1, -1, 1, -1, 1, -1, -1, 1, -1, 1, -1, -1, 1, -1, 1, -1, -1, -1, -1, 1, -1, -1, 1, 1, -1, -1, -1, 1, -1, 1, -1
BQP_DATA, 597, 2566, -1258.000000, -1560.000000, -3618.000000, -3920.000000, 32.005003, 1376, 569
